22	3

10	10	10	

0	0	0	0	3	2	3	4	
2	3	5	2	3	6	7	8	
2	5	4	3	2	5	6	
5	5	2	2	2	5	6	
3	4	1	4	2	9	11	
5	5	5	4	3	9	11	12	
3	3	5	2	2	9	10	
6	2	4	4	2	9	10	
1	3	2	2	1	13	
2	3	2	4	2	14	16	
3	3	3	2	2	13	15	
2	4	1	4	1	13	
3	1	4	4	1	18	
8	2	2	2	1	19	
4	5	5	4	1	17	
6	1	5	4	1	18	
1	4	5	4	2	20	21	
2	3	2	3	1	20	
1	5	3	3	1	20	
3	2	4	6	1	22	
4	1	6	2	1	22	
0	0	0	0	0	
